Optimal - objective value 4.00000000
      3 x_0_3                       1         3.99680288865056e-15
     17 x_1_1                       1                       0
     33 x_2_1                       1         -4.21884749357559e-15
     48 x_3_0                       1                       0
     65 x_4_1                       1                       0
     81 x_5_1                       1                       0
     99 x_6_3                       1                       0
    115 x_7_3                       1                       0
    131 x_8_3                       1                       0
    144 x_9_0                       1                       0
    161 x_10_1                      1                       0
    176 x_11_0                      1                       0
    193 x_12_1                      1                       0
    209 x_13_1                      1                       0
    233 x_14_9                      1                       0
    249 x_15_9                      1                       0
    256 y_0                         1                       0
    257 y_1                         1                       0
    259 y_3                         1         -4.01693804323107e-15
    265 y_9                         1                       1
